(set-logic QF_LIA)
(declare-fun x0 () Int)
(declare-fun x1 () Int)
(declare-fun x2 () Int)
(declare-fun x3 () Int)
(declare-fun x4 () Int)
(declare-fun x5 () Int)
(declare-fun x6 () Int)
(declare-fun x7 () Int)
(declare-fun x8 () Int)
(declare-fun x9 () Int)
(declare-fun A0 () Bool)
(declare-fun A1 () Bool)
(declare-fun A2 () Bool)
(declare-fun A3 () Bool)
(declare-fun A4 () Bool)
(declare-fun A5 () Bool)
(declare-fun A6 () Bool)
(declare-fun A7 () Bool)
(declare-fun A8 () Bool)
(declare-fun A9 () Bool)
(assert (let ((.def_0 (not A2))) (let ((.def_1 (not A8))) (let ((.def_2 (and .def_1 .def_0))) (let ((.def_3 (not .def_2))) (let ((.def_4 (not A4))) (let ((.def_5 (or A9 .def_4))) (let ((.def_6 (not .def_5))) (let ((.def_7 (and .def_6 .def_3))) (let ((.def_8 (not .def_7))) (let ((.def_9 (* (- 1) x8))) (let ((.def_10 (* 1 x3))) (let ((.def_11 (+ .def_10 .def_9))) (let ((.def_12 (< .def_11 1))) (let ((.def_13 (not .def_12))) (let ((.def_14 (* 1 x8))) (let ((.def_15 (< .def_14 1))) (let ((.def_16 (or .def_15 .def_13))) (let ((.def_17 (* (- 1) x0))) (let ((.def_18 (< .def_17 (- 1)))) (let ((.def_19 (not .def_18))) (let ((.def_20 (and .def_19 A7))) (let ((.def_21 (and .def_20 .def_16))) (let ((.def_22 (or .def_21 .def_8))) (let ((.def_23 (not .def_22))) (let ((.def_24 (* (- 1) x9))) (let ((.def_25 (< .def_24 (- 1)))) (let ((.def_26 (and .def_25 A5))) (let ((.def_27 (* (- 1) x7))) (let ((.def_28 (+ .def_14 .def_27))) (let ((.def_29 (< .def_28 (- 1)))) (let ((.def_30 (+ .def_17 .def_24))) (let ((.def_31 (< .def_30 1))) (let ((.def_32 (and .def_31 .def_29))) (let ((.def_33 (or .def_32 .def_26))) (let ((.def_34 (not .def_33))) (let ((.def_35 (not A9))) (let ((.def_36 (+ .def_27 .def_10))) (let ((.def_37 (< .def_36 (- 1)))) (let ((.def_38 (= .def_37 .def_35))) (let ((.def_39 (not .def_38))) (let ((.def_40 (not A0))) (let ((.def_41 (and A3 .def_40))) (let ((.def_42 (not .def_41))) (let ((.def_43 (or .def_42 .def_39))) (let ((.def_44 (not .def_43))) (let ((.def_45 (and .def_44 .def_34))) (let ((.def_46 (not .def_45))) (let ((.def_47 (= .def_46 .def_23))) (let ((.def_48 (not .def_47))) (let ((.def_49 (not A1))) (let ((.def_50 (or .def_1 .def_49))) (let ((.def_51 (or A4 .def_4))) (let ((.def_52 (not .def_51))) (let ((.def_53 (and .def_52 .def_50))) (let ((.def_54 (* 1 x6))) (let ((.def_55 (+ .def_24 .def_54))) (let ((.def_56 (< .def_55 (- 1)))) (let ((.def_57 (< .def_27 1))) (let ((.def_58 (not .def_57))) (let ((.def_59 (and .def_58 .def_56))) (let ((.def_60 (not .def_59))) (let ((.def_61 (* 1 x2))) (let ((.def_62 (< .def_61 1))) (let ((.def_63 (not .def_62))) (let ((.def_64 (or .def_63 .def_0))) (let ((.def_65 (not .def_64))) (let ((.def_66 (and .def_65 .def_60))) (let ((.def_67 (not .def_66))) (let ((.def_68 (or .def_67 .def_53))) (let ((.def_69 (not A3))) (let ((.def_70 (* 1 x9))) (let ((.def_71 (+ .def_70 .def_14))) (let ((.def_72 (< .def_71 1))) (let ((.def_73 (not .def_72))) (let ((.def_74 (or .def_73 .def_69))) (let ((.def_75 (not .def_74))) (let ((.def_76 (< .def_17 1))) (let ((.def_77 (or .def_0 .def_76))) (let ((.def_78 (not .def_77))) (let ((.def_79 (or .def_78 .def_75))) (let ((.def_80 (not .def_79))) (let ((.def_81 (+ .def_24 .def_14))) (let ((.def_82 (< .def_81 1))) (let ((.def_83 (not .def_82))) (let ((.def_84 (or .def_83 .def_35))) (let ((.def_85 (not A6))) (let ((.def_86 (and A5 .def_85))) (let ((.def_87 (not .def_86))) (let ((.def_88 (or .def_87 .def_84))) (let ((.def_89 (or .def_88 .def_80))) (let ((.def_90 (and .def_89 .def_68))) (let ((.def_91 (not .def_90))) (let ((.def_92 (and .def_91 .def_48))) (let ((.def_93 (* (- 1) x2))) (let ((.def_94 (+ .def_93 .def_24))) (let ((.def_95 (< .def_94 1))) (let ((.def_96 (and .def_95 .def_69))) (let ((.def_97 (not .def_96))) (let ((.def_98 (* 1 x0))) (let ((.def_99 (+ .def_98 .def_70))) (let ((.def_100 (< .def_99 1))) (let ((.def_101 (not .def_100))) (let ((.def_102 (and A5 .def_101))) (let ((.def_103 (not .def_102))) (let ((.def_104 (and .def_103 .def_97))) (let ((.def_105 (not .def_104))) (let ((.def_106 (* (- 1) x5))) (let ((.def_107 (< .def_106 1))) (let ((.def_108 (or A2 .def_107))) (let ((.def_109 (* 1 x1))) (let ((.def_110 (+ .def_109 .def_106))) (let ((.def_111 (< .def_110 1))) (let ((.def_112 (not .def_111))) (let ((.def_113 (or A0 .def_112))) (let ((.def_114 (and .def_113 .def_108))) (let ((.def_115 (or .def_114 .def_105))) (let ((.def_116 (not .def_115))) (let ((.def_117 (< .def_93 1))) (let ((.def_118 (or A9 .def_117))) (let ((.def_119 (not .def_118))) (let ((.def_120 (or A5 .def_4))) (let ((.def_121 (not .def_120))) (let ((.def_122 (or .def_121 .def_119))) (let ((.def_123 (not .def_122))) (let ((.def_124 (or .def_4 A6))) (let ((.def_125 (not .def_124))) (let ((.def_126 (* 1 x7))) (let ((.def_127 (< .def_126 (- 1)))) (let ((.def_128 (not .def_127))) (let ((.def_129 (+ .def_54 .def_61))) (let ((.def_130 (< .def_129 1))) (let ((.def_131 (and .def_130 .def_128))) (let ((.def_132 (not .def_131))) (let ((.def_133 (or .def_132 .def_125))) (let ((.def_134 (not .def_133))) (let ((.def_135 (and .def_134 .def_123))) (let ((.def_136 (or .def_135 .def_116))) (let ((.def_137 (+ .def_24 .def_61))) (let ((.def_138 (< .def_137 (- 1)))) (let ((.def_139 (and .def_85 .def_138))) (let ((.def_140 (not .def_139))) (let ((.def_141 (* (- 1) x6))) (let ((.def_142 (< .def_141 1))) (let ((.def_143 (not .def_142))) (let ((.def_144 (and .def_143 A1))) (let ((.def_145 (not .def_144))) (let ((.def_146 (or .def_145 .def_140))) (let ((.def_147 (not .def_146))) (let ((.def_148 (* (- 1) x3))) (let ((.def_149 (+ .def_24 .def_148))) (let ((.def_150 (< .def_149 1))) (let ((.def_151 (not .def_150))) (let ((.def_152 (< .def_27 (- 1)))) (let ((.def_153 (and .def_152 .def_151))) (let ((.def_154 (not .def_153))) (let ((.def_155 (+ .def_27 .def_54))) (let ((.def_156 (< .def_155 (- 1)))) (let ((.def_157 (< .def_106 (- 1)))) (let ((.def_158 (and .def_157 .def_156))) (let ((.def_159 (and .def_158 .def_154))) (let ((.def_160 (not .def_159))) (let ((.def_161 (and .def_160 .def_147))) (let ((.def_162 (not .def_161))) (let ((.def_163 (< .def_70 1))) (let ((.def_164 (not .def_163))) (let ((.def_165 (not A7))) (let ((.def_166 (or .def_165 .def_164))) (let ((.def_167 (or A1 .def_85))) (let ((.def_168 (= .def_167 .def_166))) (let ((.def_169 (+ .def_70 .def_10))) (let ((.def_170 (< .def_169 (- 1)))) (let ((.def_171 (and .def_170 .def_40))) (let ((.def_172 (+ .def_10 .def_126))) (let ((.def_173 (< .def_172 (- 1)))) (let ((.def_174 (not .def_173))) (let ((.def_175 (or A3 .def_174))) (let ((.def_176 (and .def_175 .def_171))) (let ((.def_177 (and .def_176 .def_168))) (let ((.def_178 (not .def_177))) (let ((.def_179 (and .def_178 .def_162))) (let ((.def_180 (not .def_179))) (let ((.def_181 (and .def_180 .def_136))) (let ((.def_182 (not .def_181))) (let ((.def_183 (or .def_182 .def_92))) (let ((.def_184 (not .def_183))) (let ((.def_185 (not A5))) (let ((.def_186 (or .def_165 .def_185))) (let ((.def_187 (not .def_186))) (let ((.def_188 (* 1 x4))) (let ((.def_189 (+ .def_93 .def_188))) (let ((.def_190 (< .def_189 (- 1)))) (let ((.def_191 (not .def_190))) (let ((.def_192 (or .def_191 .def_49))) (let ((.def_193 (not .def_192))) (let ((.def_194 (and .def_193 .def_187))) (let ((.def_195 (and .def_40 A3))) (let ((.def_196 (not .def_195))) (let ((.def_197 (< .def_10 1))) (let ((.def_198 (and .def_197 A4))) (let ((.def_199 (or .def_198 .def_196))) (let ((.def_200 (and .def_199 .def_194))) (let ((.def_201 (* (- 1) x1))) (let ((.def_202 (+ .def_17 .def_201))) (let ((.def_203 (< .def_202 (- 1)))) (let ((.def_204 (not .def_203))) (let ((.def_205 (and .def_204 .def_0))) (let ((.def_206 (+ .def_141 .def_17))) (let ((.def_207 (< .def_206 1))) (let ((.def_208 (not .def_207))) (let ((.def_209 (or A5 .def_208))) (let ((.def_210 (not .def_209))) (let ((.def_211 (or .def_210 .def_205))) (let ((.def_212 (not .def_15))) (let ((.def_213 (and .def_212 .def_85))) (let ((.def_214 (not .def_213))) (let ((.def_215 (+ .def_106 .def_188))) (let ((.def_216 (< .def_215 (- 1)))) (let ((.def_217 (not .def_216))) (let ((.def_218 (or .def_217 .def_152))) (let ((.def_219 (or .def_218 .def_214))) (let ((.def_220 (or .def_219 .def_211))) (let ((.def_221 (not .def_220))) (let ((.def_222 (or .def_221 .def_200))) (let ((.def_223 (not .def_222))) (let ((.def_224 (* 1 x5))) (let ((.def_225 (+ .def_224 .def_24))) (let ((.def_226 (< .def_225 1))) (let ((.def_227 (not .def_226))) (let ((.def_228 (and A0 .def_227))) (let ((.def_229 (not .def_228))) (let ((.def_230 (= A0 A9))) (let ((.def_231 (and .def_230 .def_229))) (let ((.def_232 (and .def_107 .def_49))) (let ((.def_233 (+ .def_17 .def_188))) (let ((.def_234 (< .def_233 (- 1)))) (let ((.def_235 (not .def_234))) (let ((.def_236 (< .def_61 (- 1)))) (let ((.def_237 (not .def_236))) (let ((.def_238 (= .def_237 .def_235))) (let ((.def_239 (or .def_238 .def_232))) (let ((.def_240 (and .def_239 .def_231))) (let ((.def_241 (not .def_240))) (let ((.def_242 (+ .def_24 .def_93))) (let ((.def_243 (< .def_242 (- 1)))) (let ((.def_244 (not .def_243))) (let ((.def_245 (and .def_112 .def_244))) (let ((.def_246 (and .def_49 A2))) (let ((.def_247 (not .def_246))) (let ((.def_248 (and .def_247 .def_245))) (let ((.def_249 (< .def_70 (- 1)))) (let ((.def_250 (not .def_249))) (let ((.def_251 (or .def_250 .def_165))) (let ((.def_252 (not .def_251))) (let ((.def_253 (+ .def_224 .def_61))) (let ((.def_254 (< .def_253 (- 1)))) (let ((.def_255 (not .def_254))) (let ((.def_256 (= .def_1 .def_255))) (let ((.def_257 (not .def_256))) (let ((.def_258 (and .def_257 .def_252))) (let ((.def_259 (and .def_258 .def_248))) (let ((.def_260 (not .def_259))) (let ((.def_261 (and .def_260 .def_241))) (let ((.def_262 (or .def_261 .def_223))) (let ((.def_263 (+ .def_148 .def_9))) (let ((.def_264 (< .def_263 1))) (let ((.def_265 (not .def_264))) (let ((.def_266 (and .def_249 .def_265))) (let ((.def_267 (< .def_9 (- 1)))) (let ((.def_268 (+ .def_17 .def_224))) (let ((.def_269 (< .def_268 1))) (let ((.def_270 (= .def_269 .def_267))) (let ((.def_271 (not .def_270))) (let ((.def_272 (= .def_271 .def_266))) (let ((.def_273 (not .def_272))) (let ((.def_274 (+ .def_14 .def_98))) (let ((.def_275 (< .def_274 1))) (let ((.def_276 (not .def_275))) (let ((.def_277 (or .def_276 .def_18))) (let ((.def_278 (not .def_277))) (let ((.def_279 (+ .def_24 .def_224))) (let ((.def_280 (< .def_279 1))) (let ((.def_281 (not .def_280))) (let ((.def_282 (+ .def_61 .def_10))) (let ((.def_283 (< .def_282 1))) (let ((.def_284 (= .def_283 .def_281))) (let ((.def_285 (and .def_284 .def_278))) (let ((.def_286 (not .def_285))) (let ((.def_287 (and .def_286 .def_273))) (let ((.def_288 (not .def_287))) (let ((.def_289 (< .def_224 1))) (let ((.def_290 (and .def_143 .def_289))) (let ((.def_291 (not .def_290))) (let ((.def_292 (+ .def_93 .def_224))) (let ((.def_293 (< .def_292 (- 1)))) (let ((.def_294 (or .def_293 A8))) (let ((.def_295 (not .def_294))) (let ((.def_296 (and .def_295 .def_291))) (let ((.def_297 (not .def_296))) (let ((.def_298 (< .def_141 (- 1)))) (let ((.def_299 (and .def_298 .def_0))) (let ((.def_300 (not .def_299))) (let ((.def_301 (and .def_127 .def_117))) (let ((.def_302 (= .def_301 .def_300))) (let ((.def_303 (or .def_302 .def_297))) (let ((.def_304 (or .def_303 .def_288))) (let ((.def_305 (+ .def_27 .def_224))) (let ((.def_306 (< .def_305 1))) (let ((.def_307 (not .def_306))) (let ((.def_308 (or .def_165 .def_307))) (let ((.def_309 (+ .def_27 .def_98))) (let ((.def_310 (< .def_309 1))) (let ((.def_311 (and .def_310 A8))) (let ((.def_312 (not .def_311))) (let ((.def_313 (= .def_312 .def_308))) (let ((.def_314 (not .def_313))) (let ((.def_315 (and A8 .def_49))) (let ((.def_316 (< .def_24 1))) (let ((.def_317 (or A7 .def_316))) (let ((.def_318 (not .def_317))) (let ((.def_319 (and .def_318 .def_315))) (let ((.def_320 (or .def_319 .def_314))) (let ((.def_321 (not .def_320))) (let ((.def_322 (not .def_117))) (let ((.def_323 (= A2 .def_322))) (let ((.def_324 (+ .def_9 .def_148))) (let ((.def_325 (< .def_324 (- 1)))) (let ((.def_326 (or .def_325 A2))) (let ((.def_327 (not .def_326))) (let ((.def_328 (or .def_327 .def_323))) (let ((.def_329 (+ .def_109 .def_148))) (let ((.def_330 (< .def_329 1))) (let ((.def_331 (and .def_330 A4))) (let ((.def_332 (not .def_331))) (let ((.def_333 (not .def_25))) (let ((.def_334 (and A4 .def_333))) (let ((.def_335 (and .def_334 .def_332))) (let ((.def_336 (not .def_335))) (let ((.def_337 (or .def_336 .def_328))) (let ((.def_338 (and .def_337 .def_321))) (let ((.def_339 (and .def_338 .def_304))) (let ((.def_340 (and .def_339 .def_262))) (let ((.def_341 (or .def_340 .def_184))) (let ((.def_342 (not .def_341))) (let ((.def_343 (< .def_188 1))) (let ((.def_344 (not .def_343))) (let ((.def_345 (= .def_344 .def_212))) (let ((.def_346 (not .def_345))) (let ((.def_347 (< .def_109 (- 1)))) (let ((.def_348 (not .def_347))) (let ((.def_349 (= .def_348 .def_316))) (let ((.def_350 (not .def_349))) (let ((.def_351 (and .def_350 .def_346))) (let ((.def_352 (not .def_351))) (let ((.def_353 (and A2 .def_212))) (let ((.def_354 (or A6 A9))) (let ((.def_355 (or .def_354 .def_353))) (let ((.def_356 (not .def_355))) (let ((.def_357 (and .def_356 .def_352))) (let ((.def_358 (and A9 .def_58))) (let ((.def_359 (not .def_358))) (let ((.def_360 (not .def_107))) (let ((.def_361 (and A9 .def_360))) (let ((.def_362 (not .def_361))) (let ((.def_363 (or .def_362 .def_359))) (let ((.def_364 (+ .def_106 .def_54))) (let ((.def_365 (< .def_364 (- 1)))) (let ((.def_366 (and .def_365 .def_4))) (let ((.def_367 (not .def_366))) (let ((.def_368 (and .def_185 A0))) (let ((.def_369 (not .def_368))) (let ((.def_370 (and .def_369 .def_367))) (let ((.def_371 (not .def_370))) (let ((.def_372 (or .def_371 .def_363))) (let ((.def_373 (not .def_372))) (let ((.def_374 (and .def_373 .def_357))) (let ((.def_375 (not .def_374))) (let ((.def_376 (or .def_348 .def_298))) (let ((.def_377 (not .def_376))) (let ((.def_378 (or A1 A9))) (let ((.def_379 (not .def_378))) (let ((.def_380 (or .def_379 .def_377))) (let ((.def_381 (not .def_380))) (let ((.def_382 (* (- 1) x4))) (let ((.def_383 (+ .def_382 .def_10))) (let ((.def_384 (< .def_383 (- 1)))) (let ((.def_385 (not .def_384))) (let ((.def_386 (+ .def_109 .def_27))) (let ((.def_387 (< .def_386 (- 1)))) (let ((.def_388 (or .def_387 .def_385))) (let ((.def_389 (not .def_316))) (let ((.def_390 (= .def_389 .def_49))) (let ((.def_391 (not .def_390))) (let ((.def_392 (or .def_391 .def_388))) (let ((.def_393 (not .def_392))) (let ((.def_394 (and .def_393 .def_381))) (let ((.def_395 (not .def_394))) (let ((.def_396 (or .def_4 .def_298))) (let ((.def_397 (+ .def_188 .def_54))) (let ((.def_398 (< .def_397 1))) (let ((.def_399 (or .def_398 .def_185))) (let ((.def_400 (and .def_399 .def_396))) (let ((.def_401 (and A3 A1))) (let ((.def_402 (or .def_185 .def_49))) (let ((.def_403 (or .def_402 .def_401))) (let ((.def_404 (and .def_403 .def_400))) (let ((.def_405 (or .def_404 .def_395))) (let ((.def_406 (or .def_405 .def_375))) (let ((.def_407 (or .def_19 .def_35))) (let ((.def_408 (+ .def_106 .def_24))) (let ((.def_409 (< .def_408 (- 1)))) (let ((.def_410 (= .def_409 A2))) (let ((.def_411 (not .def_410))) (let ((.def_412 (= .def_411 .def_407))) (let ((.def_413 (not .def_412))) (let ((.def_414 (and .def_142 .def_83))) (let ((.def_415 (not .def_414))) (let ((.def_416 (< .def_98 (- 1)))) (let ((.def_417 (and .def_69 .def_416))) (let ((.def_418 (or .def_417 .def_415))) (let ((.def_419 (and .def_418 .def_413))) (let ((.def_420 (< .def_201 (- 1)))) (let ((.def_421 (not .def_420))) (let ((.def_422 (< .def_224 (- 1)))) (let ((.def_423 (not .def_422))) (let ((.def_424 (= .def_423 .def_421))) (let ((.def_425 (< .def_126 1))) (let ((.def_426 (+ .def_382 .def_93))) (let ((.def_427 (< .def_426 1))) (let ((.def_428 (or .def_427 .def_425))) (let ((.def_429 (not .def_428))) (let ((.def_430 (and .def_429 .def_424))) (let ((.def_431 (not .def_430))) (let ((.def_432 (and A4 A4))) (let ((.def_433 (not .def_432))) (let ((.def_434 (and A2 A0))) (let ((.def_435 (or .def_434 .def_433))) (let ((.def_436 (= .def_435 .def_431))) (let ((.def_437 (or .def_436 .def_419))) (let ((.def_438 (not .def_437))) (let ((.def_439 (+ .def_106 .def_14))) (let ((.def_440 (< .def_439 (- 1)))) (let ((.def_441 (not .def_440))) (let ((.def_442 (not .def_298))) (let ((.def_443 (or .def_442 .def_441))) (let ((.def_444 (not .def_443))) (let ((.def_445 (< .def_148 (- 1)))) (let ((.def_446 (not .def_445))) (let ((.def_447 (and .def_446 A8))) (let ((.def_448 (and .def_447 .def_444))) (let ((.def_449 (not .def_448))) (let ((.def_450 (+ .def_27 .def_148))) (let ((.def_451 (< .def_450 (- 1)))) (let ((.def_452 (and .def_451 .def_343))) (let ((.def_453 (< .def_54 1))) (let ((.def_454 (not .def_453))) (let ((.def_455 (or .def_85 .def_454))) (let ((.def_456 (not .def_455))) (let ((.def_457 (and .def_456 .def_452))) (let ((.def_458 (not .def_457))) (let ((.def_459 (or .def_458 .def_449))) (let ((.def_460 (+ .def_93 .def_126))) (let ((.def_461 (< .def_460 (- 1)))) (let ((.def_462 (not .def_461))) (let ((.def_463 (or .def_1 .def_462))) (let ((.def_464 (not .def_463))) (let ((.def_465 (not .def_157))) (let ((.def_466 (not .def_76))) (let ((.def_467 (or .def_466 .def_465))) (let ((.def_468 (not .def_467))) (let ((.def_469 (= .def_468 .def_464))) (let ((.def_470 (not .def_469))) (let ((.def_471 (or .def_15 .def_85))) (let ((.def_472 (not .def_471))) (let ((.def_473 (or A1 .def_185))) (let ((.def_474 (and .def_473 .def_472))) (let ((.def_475 (and .def_474 .def_470))) (let ((.def_476 (not .def_475))) (let ((.def_477 (= .def_476 .def_459))) (let ((.def_478 (not .def_477))) (let ((.def_479 (and .def_478 .def_438))) (let ((.def_480 (and .def_479 .def_406))) (let ((.def_481 (not .def_480))) (let ((.def_482 (or .def_0 A8))) (let ((.def_483 (< .def_129 (- 1)))) (let ((.def_484 (not .def_483))) (let ((.def_485 (and A5 .def_484))) (let ((.def_486 (not .def_485))) (let ((.def_487 (or .def_486 .def_482))) (let ((.def_488 (and A1 A0))) (let ((.def_489 (+ .def_93 .def_98))) (let ((.def_490 (< .def_489 1))) (let ((.def_491 (< .def_292 1))) (let ((.def_492 (not .def_491))) (let ((.def_493 (or .def_492 .def_490))) (let ((.def_494 (not .def_493))) (let ((.def_495 (and .def_494 .def_488))) (let ((.def_496 (and .def_495 .def_487))) (let ((.def_497 (< .def_225 (- 1)))) (let ((.def_498 (not .def_497))) (let ((.def_499 (and .def_25 .def_498))) (let ((.def_500 (and A5 .def_69))) (let ((.def_501 (not .def_500))) (let ((.def_502 (= .def_501 .def_499))) (let ((.def_503 (not .def_289))) (let ((.def_504 (and .def_503 .def_4))) (let ((.def_505 (+ .def_17 .def_109))) (let ((.def_506 (< .def_505 1))) (let ((.def_507 (and .def_506 .def_170))) (let ((.def_508 (not .def_507))) (let ((.def_509 (and .def_508 .def_504))) (let ((.def_510 (and .def_509 .def_502))) (let ((.def_511 (or .def_510 .def_496))) (let ((.def_512 (not .def_511))) (let ((.def_513 (or .def_85 .def_4))) (let ((.def_514 (+ .def_27 .def_188))) (let ((.def_515 (< .def_514 (- 1)))) (let ((.def_516 (not .def_515))) (let ((.def_517 (or .def_516 A1))) (let ((.def_518 (not .def_517))) (let ((.def_519 (or .def_518 .def_513))) (let ((.def_520 (not .def_519))) (let ((.def_521 (< .def_382 1))) (let ((.def_522 (not .def_521))) (let ((.def_523 (and .def_117 .def_522))) (let ((.def_524 (not .def_523))) (let ((.def_525 (+ .def_148 .def_70))) (let ((.def_526 (< .def_525 1))) (let ((.def_527 (and A2 .def_526))) (let ((.def_528 (not .def_527))) (let ((.def_529 (or .def_528 .def_524))) (let ((.def_530 (and .def_529 .def_520))) (let ((.def_531 (not .def_530))) (let ((.def_532 (+ .def_61 .def_224))) (let ((.def_533 (< .def_532 1))) (let ((.def_534 (or .def_533 .def_128))) (let ((.def_535 (+ .def_109 .def_54))) (let ((.def_536 (< .def_535 (- 1)))) (let ((.def_537 (not .def_536))) (let ((.def_538 (and .def_537 .def_35))) (let ((.def_539 (or .def_538 .def_534))) (let ((.def_540 (< .def_188 (- 1)))) (let ((.def_541 (or .def_540 .def_128))) (let ((.def_542 (not .def_541))) (let ((.def_543 (or .def_69 A8))) (let ((.def_544 (not .def_543))) (let ((.def_545 (or .def_544 .def_542))) (let ((.def_546 (not .def_545))) (let ((.def_547 (or .def_546 .def_539))) (let ((.def_548 (not .def_547))) (let ((.def_549 (and .def_548 .def_531))) (let ((.def_550 (not .def_549))) (let ((.def_551 (or .def_550 .def_512))) (let ((.def_552 (not .def_152))) (let ((.def_553 (and .def_552 .def_69))) (let ((.def_554 (and .def_212 A2))) (let ((.def_555 (= .def_554 .def_553))) (let ((.def_556 (or .def_212 A4))) (let ((.def_557 (not .def_556))) (let ((.def_558 (+ .def_148 .def_141))) (let ((.def_559 (< .def_558 1))) (let ((.def_560 (not .def_559))) (let ((.def_561 (and .def_0 .def_560))) (let ((.def_562 (not .def_561))) (let ((.def_563 (and .def_562 .def_557))) (let ((.def_564 (or .def_563 .def_555))) (let ((.def_565 (+ .def_70 .def_61))) (let ((.def_566 (< .def_565 (- 1)))) (let ((.def_567 (or .def_4 .def_566))) (let ((.def_568 (+ .def_201 .def_382))) (let ((.def_569 (< .def_568 (- 1)))) (let ((.def_570 (and .def_465 .def_569))) (let ((.def_571 (or .def_570 .def_567))) (let ((.def_572 (< .def_382 (- 1)))) (let ((.def_573 (not .def_572))) (let ((.def_574 (+ .def_24 .def_17))) (let ((.def_575 (< .def_574 (- 1)))) (let ((.def_576 (and .def_575 .def_573))) (let ((.def_577 (not .def_576))) (let ((.def_578 (and A2 A6))) (let ((.def_579 (not .def_578))) (let ((.def_580 (and .def_579 .def_577))) (let ((.def_581 (or .def_580 .def_571))) (let ((.def_582 (or .def_581 .def_564))) (let ((.def_583 (not .def_582))) (let ((.def_584 (or A8 .def_0))) (let ((.def_585 (+ .def_141 .def_106))) (let ((.def_586 (< .def_585 1))) (let ((.def_587 (not .def_586))) (let ((.def_588 (+ .def_54 .def_17))) (let ((.def_589 (< .def_588 1))) (let ((.def_590 (not .def_589))) (let ((.def_591 (or .def_590 .def_587))) (let ((.def_592 (not .def_591))) (let ((.def_593 (and .def_592 .def_584))) (let ((.def_594 (or .def_85 A0))) (let ((.def_595 (or A8 .def_185))) (let ((.def_596 (and .def_595 .def_594))) (let ((.def_597 (not .def_596))) (let ((.def_598 (and .def_597 .def_593))) (let ((.def_599 (not .def_598))) (let ((.def_600 (+ .def_61 .def_141))) (let ((.def_601 (< .def_600 1))) (let ((.def_602 (or A0 .def_601))) (let ((.def_603 (not .def_602))) (let ((.def_604 (+ .def_14 .def_61))) (let ((.def_605 (< .def_604 (- 1)))) (let ((.def_606 (not .def_605))) (let ((.def_607 (and .def_606 A3))) (let ((.def_608 (not .def_607))) (let ((.def_609 (and .def_608 .def_603))) (let ((.def_610 (not .def_609))) (let ((.def_611 (+ .def_10 .def_24))) (let ((.def_612 (< .def_611 1))) (let ((.def_613 (and .def_360 .def_612))) (let ((.def_614 (and .def_165 A6))) (let ((.def_615 (and .def_614 .def_613))) (let ((.def_616 (not .def_615))) (let ((.def_617 (and .def_616 .def_610))) (let ((.def_618 (and .def_617 .def_599))) (let ((.def_619 (not .def_618))) (let ((.def_620 (and .def_619 .def_583))) (let ((.def_621 (not .def_620))) (let ((.def_622 (and .def_621 .def_551))) (let ((.def_623 (not .def_622))) (let ((.def_624 (and .def_623 .def_481))) (let ((.def_625 (not .def_624))) (let ((.def_626 (or .def_625 .def_342))) (let ((.def_627 (not .def_626))) (let ((.def_628 (<= x9 1))) (let ((.def_629 (<= 0 x9))) (let ((.def_630 (<= x8 1))) (let ((.def_631 (<= 0 x8))) (let ((.def_632 (<= x7 1))) (let ((.def_633 (<= 0 x7))) (let ((.def_634 (<= x6 1))) (let ((.def_635 (<= 0 x6))) (let ((.def_636 (<= x5 1))) (let ((.def_637 (<= 0 x5))) (let ((.def_638 (<= x4 1))) (let ((.def_639 (<= 0 x4))) (let ((.def_640 (<= x3 1))) (let ((.def_641 (<= 0 x3))) (let ((.def_642 (<= x2 1))) (let ((.def_643 (<= 0 x2))) (let ((.def_644 (<= x1 1))) (let ((.def_645 (<= 0 x1))) (let ((.def_646 (<= x0 1))) (let ((.def_647 (<= 0 x0))) (let ((.def_648 (and .def_647 .def_646 .def_645 .def_644 .def_643 .def_642 .def_641 .def_640 .def_639 .def_638 .def_637 .def_636 .def_635 .def_634 .def_633 .def_632 .def_631 .def_630 .def_629 .def_628 .def_627))) .def_648))))))))))))))))))))))))))))))))))))))))))))))))))))))))))))))))))))))))))))))))))))))))))))))))))))))))))))))))))))))))))))))))))))))))))))))))))))))))))))))))))))))))))))))))))))))))))))))))))))))))))))))))))))))))))))))))))))))))))))))))))))))))))))))))))))))))))))))))))))))))))))))))))))))))))))))))))))))))))))))))))))))))))))))))))))))))))))))))))))))))))))))))))))))))))))))))))))))))))))))))))))))))))))))))))))))))))))))))))))))))))))))))))))))))))))))))))))))))))))))))))))))))))))))))))))))))))))))))))))))))))))))))))))))))))))))))))))))))))))))))))))))))))))))))))))))))))))))))))))))))))))))))))))))))))))))))))))))))))))))))))))))))))
(check-sat)
